W=6;
H=6;

MAX_TIME=34;
MAX_TRACKS=20;
SEMAPHORE_SUPPLY=1;

TARGET=(4,6);

TRAINS=[(3,1,RIGHT),(2,6,LEFT),(6,6,LEFT)];
DECOYS=[];

INIT_POS=[
(1,3,STRAIGHT_RL),
(2,3,CORNER_DR),
(2,6,STRAIGHT_RL),
(3,1,STRAIGHT_RL),
(3,2,CORNER_DL),
(4,6,STRAIGHT_RL),
(5,2,CORNER_TL),
(5,4,CORNER_DL),
(6,3,STRAIGHT_RL),
(6,6,STRAIGHT_RL),
];
TUNNEL_PAIRS=[];

GATES=[];
ACTIVATIONS=[];

DSWITCHES=[];
STATIONS=[
  (1,3,3),
  (6,3,1),
];
